<instance xmlns:xsi="http://www.w3.org/2001/XMLSchema-instance" xsi:noNamespaceSchemaLocation="src/frodo2/algorithms/XCSPschema.xsd"><presentation format="XCSP 2.1_FRODO" maxConstraintArity="2" maximize="false" name="fapProblem" /><agents nbAgents="32"><agent name="F13" /><agent name="F14" /><agent name="F15" /><agent name="F16" /><agent name="F321" /><agent name="F322" /><agent name="F323" /><agent name="F324" /><agent name="F519" /><agent name="F520" /><agent name="F557" /><agent name="F558" /><agent name="F593" /><agent name="F594" /><agent name="F597" /><agent name="F598" /><agent name="F599" /><agent name="F600" /><agent name="F613" /><agent name="F614" /><agent name="F629" /><agent name="F630" /><agent name="F631" /><agent name="F632" /><agent name="F665" /><agent name="F666" /><agent name="F765" /><agent name="F766" /><agent name="F767" /><agent name="F768" /><agent name="F785" /><agent name="F786" /></agents><domains nbDomains="2"><domain name="domain1" nbValues="45">44 16 30 44 58 72 86 100 114 128 142 156 254 268 282 296 310 324 338 352 366 380 394 414 428 442 456 470 484 498 512 526 540 554 652 666 680 694 708 722 736 750 764 778 792</domain><domain name="domain3" nbValues="37">36 30 44 58 72 86 100 114 128 142 268 282 296 310 324 338 352 366 380 428 442 456 470 484 498 512 526 540 666 680 694 708 722 736 750 764 778</domain></domains><variables nbVariables="32"><variable agent="F13" domain="domain1" name="x13" /><variable agent="F14" domain="domain1" name="x14" /><variable agent="F15" domain="domain1" name="x15" /><variable agent="F16" domain="domain1" name="x16" /><variable agent="F321" domain="domain1" name="x321" /><variable agent="F322" domain="domain1" name="x322" /><variable agent="F323" domain="domain1" name="x323" /><variable agent="F324" domain="domain1" name="x324" /><variable agent="F519" domain="domain3" name="x519" /><variable agent="F520" domain="domain3" name="x520" /><variable agent="F557" domain="domain3" name="x557" /><variable agent="F558" domain="domain3" name="x558" /><variable agent="F593" domain="domain3" name="x593" /><variable agent="F594" domain="domain3" name="x594" /><variable agent="F597" domain="domain3" name="x597" /><variable agent="F598" domain="domain3" name="x598" /><variable agent="F599" domain="domain3" name="x599" /><variable agent="F600" domain="domain3" name="x600" /><variable agent="F613" domain="domain3" name="x613" /><variable agent="F614" domain="domain3" name="x614" /><variable agent="F629" domain="domain3" name="x629" /><variable agent="F630" domain="domain3" name="x630" /><variable agent="F631" domain="domain3" name="x631" /><variable agent="F632" domain="domain3" name="x632" /><variable agent="F665" domain="domain1" name="x665" /><variable agent="F666" domain="domain1" name="x666" /><variable agent="F765" domain="domain1" name="x765" /><variable agent="F766" domain="domain1" name="x766" /><variable agent="F767" domain="domain1" name="x767" /><variable agent="F768" domain="domain1" name="x768" /><variable agent="F785" domain="domain1" name="x785" /><variable agent="F786" domain="domain1" name="x786" /></variables><predicates nbPredicates="2"><predicate name="SUP"><parameters>int X1 int X2 int K</parameters><expression><functional>gt(abs(sub(X1, X2)), K)</functional></expression></predicate><predicate name="EQ"><parameters>int X1 int X2 int K</parameters><expression><functional>eq(abs(sub(X1, X2)), K)</functional></expression></predicate></predicates><constraints nbConstraints="223"><constraint arity="2" name="x13_x14" reference="EQ" scope="x13 x14"><parameters>x13 x14 238</parameters></constraint><constraint arity="2" name="x13_x15" reference="SUP" scope="x13 x15"><parameters>x13 x15 59</parameters></constraint><constraint arity="2" name="x13_x16" reference="SUP" scope="x13 x16"><parameters>x13 x16 186</parameters></constraint><constraint arity="2" name="x13_x321" reference="SUP" scope="x13 x321"><parameters>x13 x321 10</parameters></constraint><constraint arity="2" name="x13_x322" reference="SUP" scope="x13 x322"><parameters>x13 x322 186</parameters></constraint><constraint arity="2" name="x13_x323" reference="SUP" scope="x13 x323"><parameters>x13 x323 168</parameters></constraint><constraint arity="2" name="x13_x324" reference="SUP" scope="x13 x324"><parameters>x13 x324 56</parameters></constraint><constraint arity="2" name="x13_x557" reference="SUP" scope="x13 x557"><parameters>x13 x557 91</parameters></constraint><constraint arity="2" name="x13_x558" reference="SUP" scope="x13 x558"><parameters>x13 x558 265</parameters></constraint><constraint arity="2" name="x13_x599" reference="SUP" scope="x13 x599"><parameters>x13 x599 26</parameters></constraint><constraint arity="2" name="x13_x600" reference="SUP" scope="x13 x600"><parameters>x13 x600 200</parameters></constraint><constraint arity="2" name="x13_x665" reference="SUP" scope="x13 x665"><parameters>x13 x665 177</parameters></constraint><constraint arity="2" name="x13_x666" reference="SUP" scope="x13 x666"><parameters>x13 x666 7</parameters></constraint><constraint arity="2" name="x13_x767" reference="SUP" scope="x13 x767"><parameters>x13 x767 62</parameters></constraint><constraint arity="2" name="x13_x768" reference="SUP" scope="x13 x768"><parameters>x13 x768 233</parameters></constraint><constraint arity="2" name="x14_x15" reference="SUP" scope="x14 x15"><parameters>x14 x15 186</parameters></constraint><constraint arity="2" name="x14_x16" reference="SUP" scope="x14 x16"><parameters>x14 x16 59</parameters></constraint><constraint arity="2" name="x14_x321" reference="SUP" scope="x14 x321"><parameters>x14 x321 168</parameters></constraint><constraint arity="2" name="x14_x322" reference="SUP" scope="x14 x322"><parameters>x14 x322 11</parameters></constraint><constraint arity="2" name="x14_x323" reference="SUP" scope="x14 x323"><parameters>x14 x323 56</parameters></constraint><constraint arity="2" name="x14_x324" reference="SUP" scope="x14 x324"><parameters>x14 x324 151</parameters></constraint><constraint arity="2" name="x14_x557" reference="SUP" scope="x14 x557"><parameters>x14 x557 265</parameters></constraint><constraint arity="2" name="x14_x558" reference="SUP" scope="x14 x558"><parameters>x14 x558 408</parameters></constraint><constraint arity="2" name="x14_x599" reference="SUP" scope="x14 x599"><parameters>x14 x599 200</parameters></constraint><constraint arity="2" name="x14_x600" reference="SUP" scope="x14 x600"><parameters>x14 x600 343</parameters></constraint><constraint arity="2" name="x14_x665" reference="SUP" scope="x14 x665"><parameters>x14 x665 8</parameters></constraint><constraint arity="2" name="x14_x666" reference="SUP" scope="x14 x666"><parameters>x14 x666 177</parameters></constraint><constraint arity="2" name="x14_x767" reference="SUP" scope="x14 x767"><parameters>x14 x767 121</parameters></constraint><constraint arity="2" name="x14_x768" reference="SUP" scope="x14 x768"><parameters>x14 x768 60</parameters></constraint><constraint arity="2" name="x15_x16" reference="EQ" scope="x15 x16"><parameters>x15 x16 238</parameters></constraint><constraint arity="2" name="x15_x321" reference="SUP" scope="x15 x321"><parameters>x15 x321 10</parameters></constraint><constraint arity="2" name="x15_x322" reference="SUP" scope="x15 x322"><parameters>x15 x322 186</parameters></constraint><constraint arity="2" name="x15_x323" reference="SUP" scope="x15 x323"><parameters>x15 x323 168</parameters></constraint><constraint arity="2" name="x15_x324" reference="SUP" scope="x15 x324"><parameters>x15 x324 56</parameters></constraint><constraint arity="2" name="x15_x557" reference="SUP" scope="x15 x557"><parameters>x15 x557 91</parameters></constraint><constraint arity="2" name="x15_x558" reference="SUP" scope="x15 x558"><parameters>x15 x558 265</parameters></constraint><constraint arity="2" name="x15_x599" reference="SUP" scope="x15 x599"><parameters>x15 x599 26</parameters></constraint><constraint arity="2" name="x15_x600" reference="SUP" scope="x15 x600"><parameters>x15 x600 200</parameters></constraint><constraint arity="2" name="x15_x665" reference="SUP" scope="x15 x665"><parameters>x15 x665 177</parameters></constraint><constraint arity="2" name="x15_x666" reference="SUP" scope="x15 x666"><parameters>x15 x666 7</parameters></constraint><constraint arity="2" name="x15_x767" reference="SUP" scope="x15 x767"><parameters>x15 x767 62</parameters></constraint><constraint arity="2" name="x15_x768" reference="SUP" scope="x15 x768"><parameters>x15 x768 233</parameters></constraint><constraint arity="2" name="x16_x321" reference="SUP" scope="x16 x321"><parameters>x16 x321 168</parameters></constraint><constraint arity="2" name="x16_x322" reference="SUP" scope="x16 x322"><parameters>x16 x322 11</parameters></constraint><constraint arity="2" name="x16_x323" reference="SUP" scope="x16 x323"><parameters>x16 x323 56</parameters></constraint><constraint arity="2" name="x16_x324" reference="SUP" scope="x16 x324"><parameters>x16 x324 151</parameters></constraint><constraint arity="2" name="x16_x557" reference="SUP" scope="x16 x557"><parameters>x16 x557 265</parameters></constraint><constraint arity="2" name="x16_x558" reference="SUP" scope="x16 x558"><parameters>x16 x558 408</parameters></constraint><constraint arity="2" name="x16_x599" reference="SUP" scope="x16 x599"><parameters>x16 x599 200</parameters></constraint><constraint arity="2" name="x16_x600" reference="SUP" scope="x16 x600"><parameters>x16 x600 343</parameters></constraint><constraint arity="2" name="x16_x665" reference="SUP" scope="x16 x665"><parameters>x16 x665 8</parameters></constraint><constraint arity="2" name="x16_x666" reference="SUP" scope="x16 x666"><parameters>x16 x666 177</parameters></constraint><constraint arity="2" name="x16_x767" reference="SUP" scope="x16 x767"><parameters>x16 x767 121</parameters></constraint><constraint arity="2" name="x16_x768" reference="SUP" scope="x16 x768"><parameters>x16 x768 60</parameters></constraint><constraint arity="2" name="x321_x322" reference="EQ" scope="x321 x322"><parameters>x321 x322 238</parameters></constraint><constraint arity="2" name="x321_x323" reference="SUP" scope="x321 x323"><parameters>x321 x323 178</parameters></constraint><constraint arity="2" name="x321_x324" reference="SUP" scope="x321 x324"><parameters>x321 x324 84</parameters></constraint><constraint arity="2" name="x321_x557" reference="SUP" scope="x321 x557"><parameters>x321 x557 99</parameters></constraint><constraint arity="2" name="x321_x558" reference="SUP" scope="x321 x558"><parameters>x321 x558 274</parameters></constraint><constraint arity="2" name="x321_x594" reference="SUP" scope="x321 x594"><parameters>x321 x594 216</parameters></constraint><constraint arity="2" name="x321_x599" reference="SUP" scope="x321 x599"><parameters>x321 x599 33</parameters></constraint><constraint arity="2" name="x321_x600" reference="SUP" scope="x321 x600"><parameters>x321 x600 209</parameters></constraint><constraint arity="2" name="x321_x631" reference="SUP" scope="x321 x631"><parameters>x321 x631 192</parameters></constraint><constraint arity="2" name="x321_x665" reference="SUP" scope="x321 x665"><parameters>x321 x665 168</parameters></constraint><constraint arity="2" name="x321_x666" reference="SUP" scope="x321 x666"><parameters>x321 x666 12</parameters></constraint><constraint arity="2" name="x321_x767" reference="SUP" scope="x321 x767"><parameters>x321 x767 57</parameters></constraint><constraint arity="2" name="x321_x768" reference="SUP" scope="x321 x768"><parameters>x321 x768 224</parameters></constraint><constraint arity="2" name="x322_x323" reference="SUP" scope="x322 x323"><parameters>x322 x323 84</parameters></constraint><constraint arity="2" name="x322_x324" reference="SUP" scope="x322 x324"><parameters>x322 x324 178</parameters></constraint><constraint arity="2" name="x322_x557" reference="SUP" scope="x322 x557"><parameters>x322 x557 274</parameters></constraint><constraint arity="2" name="x322_x558" reference="SUP" scope="x322 x558"><parameters>x322 x558 416</parameters></constraint><constraint arity="2" name="x322_x599" reference="SUP" scope="x322 x599"><parameters>x322 x599 209</parameters></constraint><constraint arity="2" name="x322_x600" reference="SUP" scope="x322 x600"><parameters>x322 x600 351</parameters></constraint><constraint arity="2" name="x322_x665" reference="SUP" scope="x322 x665"><parameters>x322 x665 12</parameters></constraint><constraint arity="2" name="x322_x666" reference="SUP" scope="x322 x666"><parameters>x322 x666 186</parameters></constraint><constraint arity="2" name="x322_x767" reference="SUP" scope="x322 x767"><parameters>x322 x767 130</parameters></constraint><constraint arity="2" name="x322_x768" reference="SUP" scope="x322 x768"><parameters>x322 x768 53</parameters></constraint><constraint arity="2" name="x323_x324" reference="EQ" scope="x323 x324"><parameters>x323 x324 238</parameters></constraint><constraint arity="2" name="x323_x557" reference="SUP" scope="x323 x557"><parameters>x323 x557 257</parameters></constraint><constraint arity="2" name="x323_x558" reference="SUP" scope="x323 x558"><parameters>x323 x558 433</parameters></constraint><constraint arity="2" name="x323_x594" reference="SUP" scope="x323 x594"><parameters>x323 x594 57</parameters></constraint><constraint arity="2" name="x323_x599" reference="SUP" scope="x323 x599"><parameters>x323 x599 192</parameters></constraint><constraint arity="2" name="x323_x600" reference="SUP" scope="x323 x600"><parameters>x323 x600 368</parameters></constraint><constraint arity="2" name="x323_x631" reference="SUP" scope="x323 x631"><parameters>x323 x631 351</parameters></constraint><constraint arity="2" name="x323_x665" reference="SUP" scope="x323 x665"><parameters>x323 x665 56</parameters></constraint><constraint arity="2" name="x323_x666" reference="SUP" scope="x323 x666"><parameters>x323 x666 171</parameters></constraint><constraint arity="2" name="x323_x767" reference="SUP" scope="x323 x767"><parameters>x323 x767 122</parameters></constraint><constraint arity="2" name="x323_x768" reference="SUP" scope="x323 x768"><parameters>x323 x768 65</parameters></constraint><constraint arity="2" name="x324_x557" reference="SUP" scope="x324 x557"><parameters>x324 x557 116</parameters></constraint><constraint arity="2" name="x324_x558" reference="SUP" scope="x324 x558"><parameters>x324 x558 258</parameters></constraint><constraint arity="2" name="x324_x599" reference="SUP" scope="x324 x599"><parameters>x324 x599 56</parameters></constraint><constraint arity="2" name="x324_x600" reference="SUP" scope="x324 x600"><parameters>x324 x600 193</parameters></constraint><constraint arity="2" name="x324_x665" reference="SUP" scope="x324 x665"><parameters>x324 x665 152</parameters></constraint><constraint arity="2" name="x324_x666" reference="SUP" scope="x324 x666"><parameters>x324 x666 56</parameters></constraint><constraint arity="2" name="x324_x767" reference="SUP" scope="x324 x767"><parameters>x324 x767 65</parameters></constraint><constraint arity="2" name="x324_x768" reference="SUP" scope="x324 x768"><parameters>x324 x768 211</parameters></constraint><constraint arity="2" name="x519_x520" reference="EQ" scope="x519 x520"><parameters>x519 x520 238</parameters></constraint><constraint arity="2" name="x519_x597" reference="SUP" scope="x519 x597"><parameters>x519 x597 293</parameters></constraint><constraint arity="2" name="x519_x598" reference="SUP" scope="x519 x598"><parameters>x519 x598 434</parameters></constraint><constraint arity="2" name="x520_x597" reference="SUP" scope="x520 x597"><parameters>x520 x597 116</parameters></constraint><constraint arity="2" name="x520_x598" reference="SUP" scope="x520 x598"><parameters>x520 x598 293</parameters></constraint><constraint arity="2" name="x557_x558" reference="EQ" scope="x557 x558"><parameters>x557 x558 238</parameters></constraint><constraint arity="2" name="x557_x593" reference="SUP" scope="x557 x593"><parameters>x557 x593 154</parameters></constraint><constraint arity="2" name="x557_x594" reference="SUP" scope="x557 x594"><parameters>x557 x594 330</parameters></constraint><constraint arity="2" name="x557_x597" reference="SUP" scope="x557 x597"><parameters>x557 x597 47</parameters></constraint><constraint arity="2" name="x557_x598" reference="SUP" scope="x557 x598"><parameters>x557 x598 130</parameters></constraint><constraint arity="2" name="x557_x599" reference="SUP" scope="x557 x599"><parameters>x557 x599 66</parameters></constraint><constraint arity="2" name="x557_x600" reference="SUP" scope="x557 x600"><parameters>x557 x600 112</parameters></constraint><constraint arity="2" name="x557_x613" reference="SUP" scope="x557 x613"><parameters>x557 x613 47</parameters></constraint><constraint arity="2" name="x557_x614" reference="SUP" scope="x557 x614"><parameters>x557 x614 130</parameters></constraint><constraint arity="2" name="x557_x665" reference="SUP" scope="x557 x665"><parameters>x557 x665 274</parameters></constraint><constraint arity="2" name="x557_x666" reference="SUP" scope="x557 x666"><parameters>x557 x666 106</parameters></constraint><constraint arity="2" name="x557_x767" reference="SUP" scope="x557 x767"><parameters>x557 x767 151</parameters></constraint><constraint arity="2" name="x557_x768" reference="SUP" scope="x557 x768"><parameters>x557 x768 321</parameters></constraint><constraint arity="2" name="x557_x785" reference="SUP" scope="x557 x785"><parameters>x557 x785 47</parameters></constraint><constraint arity="2" name="x557_x786" reference="SUP" scope="x557 x786"><parameters>x557 x786 126</parameters></constraint><constraint arity="2" name="x558_x593" reference="SUP" scope="x558 x593"><parameters>x558 x593 330</parameters></constraint><constraint arity="2" name="x558_x594" reference="SUP" scope="x558 x594"><parameters>x558 x594 471</parameters></constraint><constraint arity="2" name="x558_x597" reference="SUP" scope="x558 x597"><parameters>x558 x597 224</parameters></constraint><constraint arity="2" name="x558_x598" reference="SUP" scope="x558 x598"><parameters>x558 x598 47</parameters></constraint><constraint arity="2" name="x558_x599" reference="SUP" scope="x558 x599"><parameters>x558 x599 242</parameters></constraint><constraint arity="2" name="x558_x600" reference="SUP" scope="x558 x600"><parameters>x558 x600 66</parameters></constraint><constraint arity="2" name="x558_x613" reference="SUP" scope="x558 x613"><parameters>x558 x613 224</parameters></constraint><constraint arity="2" name="x558_x614" reference="SUP" scope="x558 x614"><parameters>x558 x614 47</parameters></constraint><constraint arity="2" name="x558_x665" reference="SUP" scope="x558 x665"><parameters>x558 x665 423</parameters></constraint><constraint arity="2" name="x558_x666" reference="SUP" scope="x558 x666"><parameters>x558 x666 274</parameters></constraint><constraint arity="2" name="x558_x767" reference="SUP" scope="x558 x767"><parameters>x558 x767 321</parameters></constraint><constraint arity="2" name="x558_x768" reference="SUP" scope="x558 x768"><parameters>x558 x768 466</parameters></constraint><constraint arity="2" name="x558_x785" reference="SUP" scope="x558 x785"><parameters>x558 x785 224</parameters></constraint><constraint arity="2" name="x558_x786" reference="SUP" scope="x558 x786"><parameters>x558 x786 47</parameters></constraint><constraint arity="2" name="x593_x594" reference="EQ" scope="x593 x594"><parameters>x593 x594 238</parameters></constraint><constraint arity="2" name="x593_x597" reference="SUP" scope="x593 x597"><parameters>x593 x597 107</parameters></constraint><constraint arity="2" name="x593_x598" reference="SUP" scope="x593 x598"><parameters>x593 x598 284</parameters></constraint><constraint arity="2" name="x593_x613" reference="SUP" scope="x593 x613"><parameters>x593 x613 107</parameters></constraint><constraint arity="2" name="x593_x614" reference="SUP" scope="x593 x614"><parameters>x593 x614 284</parameters></constraint><constraint arity="2" name="x593_x631" reference="SUP" scope="x593 x631"><parameters>x593 x631 265</parameters></constraint><constraint arity="2" name="x593_x632" reference="SUP" scope="x593 x632"><parameters>x593 x632 88</parameters></constraint><constraint arity="2" name="x593_x665" reference="SUP" scope="x593 x665"><parameters>x593 x665 112</parameters></constraint><constraint arity="2" name="x593_x666" reference="SUP" scope="x593 x666"><parameters>x593 x666 68</parameters></constraint><constraint arity="2" name="x593_x767" reference="SUP" scope="x593 x767"><parameters>x593 x767 12</parameters></constraint><constraint arity="2" name="x593_x768" reference="SUP" scope="x593 x768"><parameters>x593 x768 154</parameters></constraint><constraint arity="2" name="x593_x785" reference="SUP" scope="x593 x785"><parameters>x593 x785 107</parameters></constraint><constraint arity="2" name="x593_x786" reference="SUP" scope="x593 x786"><parameters>x593 x786 279</parameters></constraint><constraint arity="2" name="x594_x597" reference="SUP" scope="x594 x597"><parameters>x594 x597 284</parameters></constraint><constraint arity="2" name="x594_x598" reference="SUP" scope="x594 x598"><parameters>x594 x598 424</parameters></constraint><constraint arity="2" name="x594_x613" reference="SUP" scope="x594 x613"><parameters>x594 x613 284</parameters></constraint><constraint arity="2" name="x594_x614" reference="SUP" scope="x594 x614"><parameters>x594 x614 424</parameters></constraint><constraint arity="2" name="x594_x631" reference="SUP" scope="x594 x631"><parameters>x594 x631 406</parameters></constraint><constraint arity="2" name="x594_x632" reference="SUP" scope="x594 x632"><parameters>x594 x632 265</parameters></constraint><constraint arity="2" name="x594_x665" reference="SUP" scope="x594 x665"><parameters>x594 x665 68</parameters></constraint><constraint arity="2" name="x594_x666" reference="SUP" scope="x594 x666"><parameters>x594 x666 242</parameters></constraint><constraint arity="2" name="x594_x767" reference="SUP" scope="x594 x767"><parameters>x594 x767 172</parameters></constraint><constraint arity="2" name="x594_x768" reference="SUP" scope="x594 x768"><parameters>x594 x768 13</parameters></constraint><constraint arity="2" name="x594_x785" reference="SUP" scope="x594 x785"><parameters>x594 x785 284</parameters></constraint><constraint arity="2" name="x594_x786" reference="SUP" scope="x594 x786"><parameters>x594 x786 424</parameters></constraint><constraint arity="2" name="x597_x598" reference="EQ" scope="x597 x598"><parameters>x597 x598 238</parameters></constraint><constraint arity="2" name="x597_x613" reference="SUP" scope="x597 x613"><parameters>x597 x613 2</parameters></constraint><constraint arity="2" name="x597_x614" reference="SUP" scope="x597 x614"><parameters>x597 x614 177</parameters></constraint><constraint arity="2" name="x597_x665" reference="SUP" scope="x597 x665"><parameters>x597 x665 218</parameters></constraint><constraint arity="2" name="x597_x666" reference="SUP" scope="x597 x666"><parameters>x597 x666 44</parameters></constraint><constraint arity="2" name="x597_x767" reference="SUP" scope="x597 x767"><parameters>x597 x767 100</parameters></constraint><constraint arity="2" name="x597_x768" reference="SUP" scope="x597 x768"><parameters>x597 x768 259</parameters></constraint><constraint arity="2" name="x597_x785" reference="SUP" scope="x597 x785"><parameters>x597 x785 2</parameters></constraint><constraint arity="2" name="x597_x786" reference="SUP" scope="x597 x786"><parameters>x597 x786 172</parameters></constraint><constraint arity="2" name="x598_x613" reference="SUP" scope="x598 x613"><parameters>x598 x613 177</parameters></constraint><constraint arity="2" name="x598_x614" reference="SUP" scope="x598 x614"><parameters>x598 x614 2</parameters></constraint><constraint arity="2" name="x598_x665" reference="SUP" scope="x598 x665"><parameters>x598 x665 361</parameters></constraint><constraint arity="2" name="x598_x666" reference="SUP" scope="x598 x666"><parameters>x598 x666 218</parameters></constraint><constraint arity="2" name="x598_x768" reference="SUP" scope="x598 x768"><parameters>x598 x768 418</parameters></constraint><constraint arity="2" name="x598_x785" reference="SUP" scope="x598 x785"><parameters>x598 x785 177</parameters></constraint><constraint arity="2" name="x598_x786" reference="SUP" scope="x598 x786"><parameters>x598 x786 2</parameters></constraint><constraint arity="2" name="x599_x600" reference="EQ" scope="x599 x600"><parameters>x599 x600 238</parameters></constraint><constraint arity="2" name="x599_x665" reference="SUP" scope="x599 x665"><parameters>x599 x665 200</parameters></constraint><constraint arity="2" name="x599_x666" reference="SUP" scope="x599 x666"><parameters>x599 x666 26</parameters></constraint><constraint arity="2" name="x599_x767" reference="SUP" scope="x599 x767"><parameters>x599 x767 87</parameters></constraint><constraint arity="2" name="x599_x768" reference="SUP" scope="x599 x768"><parameters>x599 x768 256</parameters></constraint><constraint arity="2" name="x600_x665" reference="SUP" scope="x600 x665"><parameters>x600 x665 343</parameters></constraint><constraint arity="2" name="x600_x666" reference="SUP" scope="x600 x666"><parameters>x600 x666 200</parameters></constraint><constraint arity="2" name="x600_x767" reference="SUP" scope="x600 x767"><parameters>x600 x767 256</parameters></constraint><constraint arity="2" name="x600_x768" reference="SUP" scope="x600 x768"><parameters>x600 x768 401</parameters></constraint><constraint arity="2" name="x613_x614" reference="EQ" scope="x613 x614"><parameters>x613 x614 238</parameters></constraint><constraint arity="2" name="x613_x665" reference="SUP" scope="x613 x665"><parameters>x613 x665 218</parameters></constraint><constraint arity="2" name="x613_x666" reference="SUP" scope="x613 x666"><parameters>x613 x666 42</parameters></constraint><constraint arity="2" name="x613_x765" reference="SUP" scope="x613 x765"><parameters>x613 x765 47</parameters></constraint><constraint arity="2" name="x613_x766" reference="SUP" scope="x613 x766"><parameters>x613 x766 224</parameters></constraint><constraint arity="2" name="x613_x768" reference="SUP" scope="x613 x768"><parameters>x613 x768 258</parameters></constraint><constraint arity="2" name="x613_x785" reference="SUP" scope="x613 x785"><parameters>x613 x785 28</parameters></constraint><constraint arity="2" name="x613_x786" reference="SUP" scope="x613 x786"><parameters>x613 x786 172</parameters></constraint><constraint arity="2" name="x614_x665" reference="SUP" scope="x614 x665"><parameters>x614 x665 359</parameters></constraint><constraint arity="2" name="x614_x666" reference="SUP" scope="x614 x666"><parameters>x614 x666 218</parameters></constraint><constraint arity="2" name="x614_x765" reference="SUP" scope="x614 x765"><parameters>x614 x765 126</parameters></constraint><constraint arity="2" name="x614_x766" reference="SUP" scope="x614 x766"><parameters>x614 x766 47</parameters></constraint><constraint arity="2" name="x614_x767" reference="SUP" scope="x614 x767"><parameters>x614 x767 258</parameters></constraint><constraint arity="2" name="x614_x768" reference="SUP" scope="x614 x768"><parameters>x614 x768 418</parameters></constraint><constraint arity="2" name="x614_x785" reference="SUP" scope="x614 x785"><parameters>x614 x785 177</parameters></constraint><constraint arity="2" name="x614_x786" reference="SUP" scope="x614 x786"><parameters>x614 x786 25</parameters></constraint><constraint arity="2" name="x629_x630" reference="EQ" scope="x629 x630"><parameters>x629 x630 238</parameters></constraint><constraint arity="2" name="x629_x631" reference="SUP" scope="x629 x631"><parameters>x629 x631 266</parameters></constraint><constraint arity="2" name="x629_x632" reference="SUP" scope="x629 x632"><parameters>x629 x632 125</parameters></constraint><constraint arity="2" name="x629_x768" reference="SUP" scope="x629 x768"><parameters>x629 x768 134</parameters></constraint><constraint arity="2" name="x630_x631" reference="SUP" scope="x630 x631"><parameters>x630 x631 442</parameters></constraint><constraint arity="2" name="x630_x632" reference="SUP" scope="x630 x632"><parameters>x630 x632 266</parameters></constraint><constraint arity="2" name="x630_x768" reference="SUP" scope="x630 x768"><parameters>x630 x768 31</parameters></constraint><constraint arity="2" name="x631_x632" reference="EQ" scope="x631 x632"><parameters>x631 x632 238</parameters></constraint><constraint arity="2" name="x631_x767" reference="SUP" scope="x631 x767"><parameters>x631 x767 241</parameters></constraint><constraint arity="2" name="x631_x768" reference="SUP" scope="x631 x768"><parameters>x631 x768 400</parameters></constraint><constraint arity="2" name="x632_x767" reference="SUP" scope="x632 x767"><parameters>x632 x767 83</parameters></constraint><constraint arity="2" name="x665_x666" reference="EQ" scope="x665 x666"><parameters>x665 x666 238</parameters></constraint><constraint arity="2" name="x665_x767" reference="SUP" scope="x665 x767"><parameters>x665 x767 121</parameters></constraint><constraint arity="2" name="x665_x768" reference="SUP" scope="x665 x768"><parameters>x665 x768 60</parameters></constraint><constraint arity="2" name="x665_x785" reference="SUP" scope="x665 x785"><parameters>x665 x785 218</parameters></constraint><constraint arity="2" name="x665_x786" reference="SUP" scope="x665 x786"><parameters>x665 x786 361</parameters></constraint><constraint arity="2" name="x666_x767" reference="SUP" scope="x666 x767"><parameters>x666 x767 62</parameters></constraint><constraint arity="2" name="x666_x768" reference="SUP" scope="x666 x768"><parameters>x666 x768 233</parameters></constraint><constraint arity="2" name="x666_x785" reference="SUP" scope="x666 x785"><parameters>x666 x785 44</parameters></constraint><constraint arity="2" name="x666_x786" reference="SUP" scope="x666 x786"><parameters>x666 x786 214</parameters></constraint><constraint arity="2" name="x765_x766" reference="EQ" scope="x765 x766"><parameters>x765 x766 238</parameters></constraint><constraint arity="2" name="x765_x767" reference="SUP" scope="x765 x767"><parameters>x765 x767 146</parameters></constraint><constraint arity="2" name="x767_x768" reference="EQ" scope="x767 x768"><parameters>x767 x768 238</parameters></constraint><constraint arity="2" name="x767_x785" reference="SUP" scope="x767 x785"><parameters>x767 x785 100</parameters></constraint><constraint arity="2" name="x767_x786" reference="SUP" scope="x767 x786"><parameters>x767 x786 259</parameters></constraint><constraint arity="2" name="x768_x785" reference="SUP" scope="x768 x785"><parameters>x768 x785 259</parameters></constraint><constraint arity="2" name="x785_x786" reference="EQ" scope="x785 x786"><parameters>x785 x786 238</parameters></constraint></constraints></instance>